1 1 2 0
1 -3 -4 0
1 -5 6 0
1 -5 3 0
1 5 -7 0
1 5 8 0
1 -9 10 0
1 9 -3 0
1 11 -3 0
1 11 1 0
1 8 4 0
1 -8 5 0
1 6 12 0
1 -6 -13 0
1 -14 -4 0
1 14 -2 0
1 14 -15 0
1 16 17 0
1 -16 18 0
1 16 19 0
1 -16 2 0
1 -12 -20 0
1 12 -21 0
1 22 -13 0
1 -23 -19 0
1 -24 -13 0
1 25 19 0
1 -19 -25 0
1 15 26 0
1 18 27 0
1 -28 29 0
1 -29 30 0
1 -29 31 0
1 -32 -30 0
1 -32 -31 0
1 33 -29 0
1 -33 34 0
1 31 29 0
1 35 -30 0
1 -35 36 0
1 -35 8 0
1 37 -38 0
1 -39 40 0
1 -39 36 0
1 39 41 0
1 -10 42 0
1 -10 43 0
1 10 39 0
1 -38 44 0
1 -36 39 0
1 36 -45 0
1 42 37 0
1 -42 46 0
1 47 44 0
1 47 -10 0
1 -47 -32 0
1 48 -49 0
1 -48 -36 0
1 -50 -38 0
1 -50 -51 0
1 50 12 0
1 52 -38 0
1 52 53 0
1 -40 -54 0
1 -55 44 0
1 -55 -52 0
1 -55 -56 0
1 55 -54 0
1 -55 -49 0
1 -26 -57 0
1 -26 4 0
1 26 18 0
1 -26 58 0
1 -59 60 0
1 61 -54 0
1 -27 20 0
1 58 59 0
1 -62 51 0
1 -62 -63 0
1 63 -57 0
1 63 -18 0
1 -64 -57 0
1 64 -65 0
1 -66 -65 0
1 -66 64 0
1 -66 20 0
1 -66 67 0
1 -67 68 0
1 65 69 0
1 -70 71 0
1 -72 -65 0
1 72 67 0
1 73 67 0
1 74 -68 0
1 68 -65 0
1 68 -75 0
1 -76 -77 0
1 76 64 0
1 -76 -73 0
1 -78 -79 0
1 -78 76 0
1 80 -77 0
1 -80 -72 0
1 80 -81 0
1 82 83 0
1 84 -85 0
1 -86 -87 0
1 -85 88 0
1 85 41 0
1 -85 89 0
1 -85 -34 0
1 85 -82 0
1 -90 -34 0
1 -90 -84 0
1 -88 -37 0
1 41 -91 0
1 41 39 0
1 -92 -90 0
1 -92 31 0
1 93 -94 0
1 93 95 0
1 87 94 0
1 91 86 0
1 96 97 0
1 96 98 0
1 99 -92 0
1 100 96 0
1 98 101 0
1 -102 -38 0
1 -102 -103 0
1 -54 97 0
1 104 -27 0
1 105 30 0
1 -106 -54 0
1 56 55 0
1 -56 107 0
1 -107 -108 0
1 109 110 0
1 109 -111 0
1 -109 -108 0
1 112 -113 0
1 112 -45 0
1 114 -115 0
1 114 104 0
1 -45 -116 0
1 111 117 0
1 111 -56 0
1 -108 -56 0
1 -108 54 0
1 108 -118 0
1 108 -112 0
1 -119 -117 0
1 120 -20 0
1 120 -45 0
1 116 45 0
1 115 110 0
1 -121 -119 0
1 121 -81 0
1 122 -121 0
1 -123 124 0
1 -123 125 0
1 -123 -126 0
1 123 -110 0
1 -110 115 0
1 110 55 0
1 -69 127 0
1 -69 67 0
1 -128 -121 0
1 -128 -122 0
1 -129 130 0
1 81 131 0
1 -132 69 0
1 -132 -128 0
1 -133 134 0
1 133 128 0
1 -133 -115 0
1 -135 -136 0
1 77 132 0
1 137 -138 0
1 139 71 0
1 -140 141 0
1 -130 20 0
1 -71 -77 0
1 71 -142 0
1 -71 130 0
1 71 -143 0
1 -141 -144 0
1 144 -142 0
1 -145 -146 0
1 -145 143 0
1 147 -140 0
1 -148 141 0
1 -79 -141 0
1 149 150 0
1 150 149 0
1 150 151 0
1 -152 -151 0
1 -101 153 0
1 -101 -151 0
1 -89 154 0
1 89 155 0
1 153 156 0
1 -151 -152 0
1 151 -157 0
1 158 159 0
1 155 -95 0
1 154 -160 0
1 -154 161 0
1 -154 95 0
1 162 154 0
1 161 152 0
1 -161 163 0
1 -117 164 0
1 165 106 0
1 -165 -108 0
1 -166 167 0
1 -118 -111 0
1 168 99 0
1 169 -125 0
1 -164 170 0
1 -171 154 0
1 171 -170 0
1 -126 123 0
1 -126 -45 0
1 -172 126 0
1 172 -169 0
1 125 -173 0
1 -125 -174 0
1 -167 -125 0
1 167 172 0
1 173 -175 0
1 -173 -176 0
1 176 177 0
1 -124 -174 0
1 -124 167 0
1 -124 122 0
1 -136 174 0
1 -138 -178 0
1 -134 179 0
1 134 -180 0
1 -181 -45 0
1 -181 -182 0
1 181 138 0
1 183 -175 0
1 -180 -184 0
1 -182 132 0
1 -182 181 0
1 142 -71 0
1 142 -178 0
1 142 185 0
1 -143 -185 0
1 143 -186 0
1 187 185 0
1 -186 -142 0
1 186 134 0
1 163 -171 0
1 -163 -172 0
1 -188 -189 0
1 188 190 0
1 -188 -191 0
1 -188 171 0
1 -188 164 0
1 192 171 0
1 -192 193 0
1 -194 -191 0
1 -170 164 0
1 195 -173 0
1 195 -196 0
1 -197 175 0
1 191 -188 0
1 -191 177 0
1 191 -197 0
1 198 190 0
1 190 -194 0
1 190 170 0
1 199 -191 0
1 -184 200 0
1 201 184 0
1 -201 -177 0
